c Random CNF formula
p cnf 10 20
3 2 4 -1 5 0
3 2 10 9 -4 0
7 6 2 -5 1 0
6 -9 -5 2 -4 0
-6 -5 4 -10 -2 0
-8 -4 6 10 -2 0
4 2 5 1 -7 0
3 -10 -8 -5 -7 0
-4 -10 -1 2 -8 0
-3 1 -2 7 5 0
5 -10 -3 -1 -9 0
3 9 -2 1 10 0
8 5 -1 3 9 0
7 -9 6 3 10 0
-1 -9 2 10 7 0
10 3 1 9 2 0
-3 7 -4 -9 8 0
5 9 -7 2 4 0
-1 6 -4 -8 3 0
9 -6 -5 8 -1 0
